2000.56
0 17 18 19 20 16 14 13 15 11 9 8 7 6 5 4 10 2 3 1 32 34 29 30 28 27 31 26 25 22 24 23 21 0
0 65 116 33 70 63 40 42 41 43 45 44 39 38 36 35 37 56 57 58 55 59 53 54 62 52 51 50 49 48 61 60 47 64 46 0
0 85 86 84 88 12 89 90 87 82 68 69 80 66 71 67 78 77 75 76 74 72 73 0
0 101 97 96 104 102 95 98 99 100 94 93 92 83 91 0
0 109 108 107 106 115 117 113 112 110 111 105 103 133 118 0
0 119 114 120 121 129 128 127 125 122 123 126 124 79 134 0
0 81 132 131 130 0
